 vasp.5.4.4.18Apr17-6-g9f103f2a35 (build Mar 17 2023 15:15:52) complex

 executed on             LinuxIFC date 2023.05.02  20:48:58

 INCAR:
 POTCAR:    PAW_PBE Cr_pv 02Aug2007
 POTCAR:    PAW_PBE N 08Apr2002

 POTCAR:    PAW_PBE Cr_pv 02Aug2007
   VRHFIN =Cr : p6d5s1

   TITEL  = PAW_PBE Cr_pv 02Aug2007
   POMASS =   51.996; ZVAL   =   12.000    mass and valenz
   ENMAX  =  265.681; ENMIN  =  199.261 eV

 POTCAR:    PAW_PBE N 08Apr2002
   VRHFIN =N: s2p3

   TITEL  = PAW_PBE N 08Apr2002
   POMASS =   14.001; ZVAL   =    5.000    mass and valenz
   ENMAX  =  400.000; ENMIN  =  300.000 eV

  PAW_PBE Cr_pv 02Aug2007               :
  PAW_PBE N 08Apr2002                   :

 POSCAR:  generated by phonopy
  positions in direct lattice
 exchange correlation table for  LEXCH =        8
   RHO(1)=    0.500       N(1)  =     2000
   RHO(2)=  100.500       N(2)  =     4000

 ion  position               nearest neighbor table
   1  0.284  0.005  0.003-  42 1.85  51 1.90  61 2.11  49 2.20  57 2.26  41 2.30  15 2.66  28 2.68
                            22 2.80  18 2.83  21 3.01  11 3.07  26 3.09  27 3.15  25 3.15  17 3.16
   2  0.778  0.018  0.004-  41 1.98  62 1.99  50 2.08  58 2.24  52 2.28  42 2.35  14 2.81  17 2.91
                            21 2.92  25 2.93  26 2.96  27 2.99  12 2.99  28 3.02  16 3.04  22 3.06
   3  0.256  0.508  0.017-  63 2.07  43 2.07  49 2.08  59 2.13  44 2.29  51 2.33  19 2.84  23 2.86
                            25 2.88  13 2.94   9 2.95  27 2.95  11 3.06  15 3.07  24 3.08  20 3.10
   4  0.781  0.511  0.023-  43 1.96  60 2.04  52 2.04  50 2.12  44 2.16  64 2.30  10 2.78  27 2.83
                            19 2.84  25 2.91  23 2.92  14 2.93  26 2.93  16 2.98  24 3.03  12 3.10
   5  0.262  0.014  0.526-  55 1.94  61 1.95  53 2.01  45 2.03  46 2.11  57 2.21  21 2.85  22 2.91
                            32 2.93  15 2.94  31 2.94  29 2.95  13 3.00  11 3.03  18 3.08   9 3.09
   6  0.756  0.001  0.526-  56 1.91  62 2.08  46 2.11  58 2.21  45 2.26  54 2.32  31 2.84  12 2.88
                            22 2.90  32 2.90  16 2.96  21 3.03  29 3.07  30 3.11  14 3.13  17 3.15
   7  0.252  0.505  0.530-  47 1.88  63 2.07  53 2.17  48 2.18  59 2.24  55 2.38  13 2.69   9 2.87
                            23 2.87  29 2.93  30 2.95  20 3.03  19 3.04  32 3.10  11 3.11  24 3.11
   8  0.785  0.508  0.505-  54 2.02  60 2.08  47 2.10  64 2.12  56 2.29  48 2.33  10 2.85  29 2.89
                            19 2.91  30 2.97  31 2.97  16 3.03  20 3.03  23 3.05  12 3.10  14 3.15
   9  0.269  0.280  0.278-  59 2.01  57 2.10  53 2.18  33 2.18  34 2.24  49 2.29   7 2.87  19 2.88
                            30 2.91   3 2.95  20 2.97  18 2.99  25 3.02  29 3.02   5 3.09  17 3.11
  10  0.757  0.284  0.257-  34 1.90  50 1.98  60 2.14  33 2.17  58 2.23  54 2.34  26 2.77   4 2.78
                             8 2.85  19 2.96  30 2.97  25 2.97  20 3.00  17 3.11  18 3.12   2 3.13
  11  0.261  0.763  0.271-  35 1.98  59 2.10  36 2.15  55 2.17  51 2.27  57 2.29  20 2.85  32 2.93
                            19 2.95  18 2.98  28 3.01   5 3.03  17 3.04   3 3.06   1 3.07  31 3.11
  12  0.767  0.783  0.266-  58 2.04  56 2.08  60 2.11  36 2.13  35 2.21  52 2.26   6 2.88  17 2.88
                            18 2.99   2 2.99  28 3.03  20 3.04  31 3.05  27 3.05  32 3.07   8 3.10
  13  0.266  0.282  0.755-  53 1.91  63 1.91  37 2.00  49 2.17  38 2.20  61 2.31   7 2.69  29 2.90
                            23 2.94   3 2.94  30 2.96   5 3.00  21 3.03  24 3.07  22 3.11  25 3.11
  14  0.761  0.264  0.783-  38 2.01  50 2.06  62 2.09  54 2.14  64 2.21  37 2.27  26 2.76   2 2.81
                             4 2.93  25 3.00  21 3.03  22 3.04  24 3.05  29 3.06  30 3.08  23 3.13
  15  0.252  0.783  0.784-  39 1.86  51 1.88  61 1.95  55 2.20  40 2.33  63 2.35   1 2.66  27 2.78
                            21 2.81  22 2.91  23 2.93   5 2.94  28 2.95  31 2.98   3 3.07  32 3.12
  16  0.782  0.750  0.766-  64 1.95  52 2.01  39 2.15  40 2.17  56 2.18  62 2.29  31 2.75  23 2.78
                            27 2.79  24 2.84   6 2.96   4 2.98   8 3.03   2 3.04  21 3.07  28 3.16
  17  0.011  0.020  0.256-  33 2.08  41 2.09  45 2.17  57 2.17  58 2.19  35 2.20  25 2.85  12 2.88
                             2 2.91  11 3.04  29 3.05   9 3.11  10 3.11   5 3.12  27 3.12  31 3.13
  18  0.503  0.017  0.254-  57 2.01  42 2.04  36 2.04  46 2.11  58 2.11  34 2.24  28 2.82   1 2.83
                            26 2.95  11 2.98  12 2.99   9 2.99  32 3.07   5 3.08  10 3.12  30 3.15
  19  0.021  0.511  0.256-  43 2.00  60 2.02  47 2.09  33 2.10  59 2.11  35 2.13   4 2.84   3 2.84
                            25 2.87   9 2.88   8 2.91  11 2.95  10 2.96  27 2.98   7 3.04  29 3.16
  20  0.508  0.535  0.281-  48 1.92  59 2.02  36 2.07  44 2.11  34 2.20  60 2.34  32 2.82  11 2.85
                            30 2.94   9 2.97  10 3.00   8 3.03   7 3.03  12 3.04  28 3.08   3 3.10
  21  0.023  0.021  0.762-  61 2.01  41 2.11  45 2.15  39 2.16  37 2.18  62 2.20  15 2.81  31 2.84
                            29 2.84   5 2.85   2 2.92   1 3.01   6 3.03  13 3.03  14 3.03  25 3.05
  22  0.510  0.009  0.762-  40 1.98  61 2.12  62 2.14  42 2.15  38 2.18  46 2.22   1 2.80  28 2.89
                             6 2.90   5 2.91  15 2.91  32 2.93  14 3.04   2 3.06  26 3.10  13 3.11
  23  0.021  0.526  0.776-  63 2.00  39 2.06  43 2.08  37 2.12  64 2.19  47 2.34  27 2.73  16 2.78
                             3 2.86   7 2.87   4 2.92  15 2.93  13 2.94  31 2.97   8 3.05  25 3.07
  24  0.525  0.535  0.774-  64 2.02  40 2.06  44 2.22  38 2.29  63 2.29  48 2.31  16 2.84  32 2.95
                            28 2.97   4 3.03  14 3.05  26 3.07  13 3.07   3 3.08  30 3.09   7 3.11
  25  0.019  0.264  0.026-  33 2.05  50 2.09  41 2.10  49 2.20  43 2.22  37 2.23  17 2.85  19 2.87
                             3 2.88   4 2.91   2 2.93  10 2.97  14 3.00   9 3.02  21 3.05  23 3.07
  26  0.535  0.269  0.017-  50 2.01  42 2.04  38 2.06  44 2.13  49 2.17  34 2.26  14 2.76  10 2.77
                             4 2.93  18 2.95   2 2.96  24 3.07   1 3.09  22 3.10   3 3.11   9 3.16
  27  0.010  0.754  0.002-  43 1.94  52 2.06  39 2.11  51 2.14  41 2.24  35 2.33  23 2.73  15 2.78
                            16 2.79   4 2.83   3 2.95  19 2.98   2 2.99  21 3.05  12 3.05  11 3.12
  28  0.510  0.784  0.018-  42 2.09  51 2.11  36 2.13  40 2.13  52 2.20  44 2.26   1 2.68  18 2.82
                            22 2.89  15 2.95  24 2.97  11 3.01   2 3.02  12 3.03  20 3.08  16 3.16
  29  0.013  0.256  0.526-  37 2.03  45 2.17  54 2.17  33 2.21  53 2.24  47 2.27  21 2.84   8 2.89
                            13 2.90   7 2.93   5 2.95   9 3.02  17 3.05  14 3.06   6 3.07  23 3.13
  30  0.518  0.280  0.514-  48 1.88  34 1.97  54 2.03  53 2.06  46 2.12  38 2.22   9 2.91  20 2.94
                             7 2.95  13 2.96  10 2.97   8 2.97  14 3.08  24 3.09   6 3.11  22 3.12
  31  0.006  0.778  0.534-  39 1.90  45 1.92  56 2.07  55 2.13  35 2.20  47 2.21  16 2.75  21 2.84
                             6 2.84   5 2.94  23 2.97   8 2.97  15 2.98  12 3.05  11 3.11   7 3.12
  32  0.505  0.768  0.516-  55 2.10  36 2.11  40 2.14  56 2.18  46 2.24  48 2.28  20 2.82   6 2.90
                            22 2.93   5 2.93  11 2.93  24 2.95  12 3.07  18 3.07   7 3.10  15 3.12
  33  0.012  0.265  0.266-  25 2.05  17 2.08  19 2.10  10 2.17   9 2.18  29 2.21
  34  0.533  0.278  0.283-  10 1.90  30 1.97  20 2.20   9 2.24  18 2.24  26 2.26
  35  0.027  0.762  0.276-  11 1.98  19 2.13  17 2.20  31 2.20  12 2.21  27 2.33
  36  0.515  0.778  0.268-  18 2.04  20 2.07  32 2.11  28 2.13  12 2.13  11 2.15
  37  0.029  0.277  0.763-  13 2.00  29 2.03  23 2.12  21 2.18  25 2.23  14 2.27
  38  0.524  0.266  0.775-  14 2.01  26 2.06  22 2.18  13 2.20  30 2.22  24 2.29
  39  0.035  0.767  0.755-  15 1.86  31 1.90  23 2.06  27 2.11  16 2.15  21 2.16
  40  0.527  0.778  0.767-  22 1.98  24 2.06  28 2.13  32 2.14  16 2.17  15 2.33
  41  0.012  0.018  0.011-   2 1.98  17 2.09  25 2.10  21 2.11  27 2.24   1 2.30
  42  0.501  0.030  0.015-   1 1.85  18 2.04  26 2.04  28 2.09  22 2.15   2 2.35
  43  0.012  0.526  0.020-  27 1.94   4 1.96  19 2.00   3 2.07  23 2.08  25 2.22
  44  0.527  0.519  0.034-  20 2.11  26 2.13   4 2.16  24 2.22  28 2.26   3 2.29
  45  0.023  0.002  0.510-  31 1.92   5 2.03  21 2.15  29 2.17  17 2.17   6 2.26
  46  0.510  0.032  0.502-  18 2.11   6 2.11   5 2.11  30 2.12  22 2.22  32 2.24
  47  0.033  0.522  0.502-   7 1.88  19 2.09   8 2.10  31 2.21  29 2.27  23 2.34
  48  0.509  0.501  0.505-  30 1.88  20 1.92   7 2.18  32 2.28  24 2.31   8 2.33
  49  0.278  0.264  0.009-   3 2.08  13 2.17  26 2.17  25 2.20   1 2.20   9 2.29
  50  0.772  0.262  0.025-  10 1.98  26 2.01  14 2.06   2 2.08  25 2.09   4 2.12
  51  0.261  0.782  0.005-  15 1.88   1 1.90  28 2.11  27 2.14  11 2.27   3 2.33
  52  0.767  0.751  0.002-  16 2.01   4 2.04  27 2.06  28 2.20  12 2.26   2 2.28
  53  0.278  0.250  0.533-  13 1.91   5 2.01  30 2.06   7 2.17   9 2.18  29 2.24
  54  0.758  0.274  0.532-   8 2.02  30 2.03  14 2.14  29 2.17   6 2.32  10 2.34
  55  0.258  0.785  0.526-   5 1.94  32 2.10  31 2.13  11 2.17  15 2.20   7 2.38
  56  0.763  0.776  0.511-   6 1.91  31 2.07  12 2.08  16 2.18  32 2.18   8 2.29
  57  0.267  0.033  0.266-  18 2.01   9 2.10  17 2.17   5 2.21   1 2.26  11 2.29
  58  0.752  0.022  0.267-  12 2.04  18 2.11  17 2.19   6 2.21  10 2.23   2 2.24
  59  0.270  0.516  0.267-   9 2.01  20 2.02  11 2.10  19 2.11   3 2.13   7 2.24
  60  0.784  0.535  0.261-  19 2.02   4 2.04   8 2.08  12 2.11  10 2.14  20 2.34
  61  0.260  0.010  0.755-  15 1.95   5 1.95  21 2.01   1 2.11  22 2.12  13 2.31
  62  0.763  0.019  0.770-   2 1.99   6 2.08  14 2.09  22 2.14  21 2.20  16 2.29
  63  0.256  0.507  0.774-  13 1.91  23 2.00   3 2.07   7 2.07  24 2.29  15 2.35
  64  0.763  0.522  0.753-  16 1.95  24 2.02   8 2.12  23 2.19  14 2.21   4 2.30

  LATTYP: Found a simple tetragonal cell.
 ALAT       =     8.4952355900
 C/A-ratio  =     0.9957481450

  Lattice vectors:

 A1 = (   0.0000000000,   8.4952355900,   0.0000000000)
 A2 = (   0.0000000000,   0.0000000000,  -8.4952355900)
 A3 = (  -8.4591150800,   0.0000000000,   0.0000000000)

Analysis of symmetry for initial positions (statically):
 Subroutine PRICEL returns:
 Original cell was already a primitive cell.

 Routine SETGRP: Setting up the symmetry group for a
 simple tetragonal supercell.

 Subroutine GETGRP returns: Found  1 space group operations
 (whereof  1 operations were pure point group operations)
 out of a pool of 16 trial point group operations.

The static configuration has the point symmetry C_1 .

Analysis of symmetry for dynamics (positions and initial velocities):
 Subroutine PRICEL returns:
 Original cell was already a primitive cell.

[...]

The dynamic configuration has the point symmetry C_1 .

Analysis of structural, dynamic, and magnetic symmetry:
 Subroutine PRICEL returns:
 Original cell was already a primitive cell.

 Routine SETGRP: Setting up the symmetry group for a
 simple tetragonal supercell.

 Subroutine GETGRP returns: Found  1 space group operations
 (whereof  1 operations were pure point group operations)
 out of a pool of 16 trial point group operations.

[...]
   -.154E+03 -.154E+02 -.280E+02   0.156E+03 0.121E+02 0.277E+02   0.339E+00 0.387E+01 0.826E+00   0.190E-05 0.294E-03 0.757E-04
   0.139E+03 -.471E+01 0.290E+02   -.141E+03 0.772E+01 -.260E+02   -.497E+00 -.221E+01 -.246E+01   -.476E-05 0.540E-04 0.300E-04
   -.465E+02 -.332E+02 0.141E+03   0.471E+02 0.329E+02 -.141E+03   0.508E+00 0.129E+01 -.183E+01   -.448E-04 0.402E-04 0.698E-04
   -.448E+00 -.134E+03 0.532E+02   -.178E+01 0.134E+03 -.536E+02   0.264E+01 0.349E+01 -.244E+00   0.102E-03 -.137E-03 -.313E-05
   -.844E+02 -.917E+02 0.325E+02   0.832E+02 0.919E+02 -.321E+02   0.369E+01 0.865E+00 -.824E+00   -.655E-04 0.280E-06 -.518E-04
   0.509E+02 -.340E+02 -.128E+02   -.506E+02 0.317E+02 0.141E+02   -.166E+01 0.355E+01 0.408E-01   0.807E-04 0.165E-03 -.425E-04
   -.114E+02 0.583E+02 0.527E+02   0.112E+02 -.603E+02 -.532E+02   0.475E+00 0.379E+00 -.885E-01   -.348E-04 0.804E-04 -.174E-03
   -.416E+02 0.735E+02 -.121E+03   0.399E+02 -.754E+02 0.120E+03   0.349E+01 0.366E+00 0.193E+01   0.130E-03 0.182E-03 -.513E-04
   -.376E+01 -.294E+02 0.933E+01   0.578E+00 0.294E+02 -.703E+01   0.315E+01 0.130E+01 -.222E+01   -.129E-03 -.521E-03 0.463E-05
   -.584E+01 0.891E+01 0.321E+02   0.545E+01 -.933E+01 -.299E+02   0.649E+00 -.117E+01 -.236E+01   0.129E-03 -.211E-03 0.393E-04
   -.896E+02 0.573E+02 -.103E+03   0.888E+02 -.556E+02 0.104E+03   0.179E+01 -.353E+01 0.153E+01   -.178E-03 0.391E-03 -.357E-03
   -.369E+02 -.361E+02 0.892E+02   0.337E+02 0.351E+02 -.926E+02   0.354E+01 0.129E+01 0.119E+01   0.128E-03 0.141E-03 0.651E-04
   -.172E+03 0.165E+03 0.784E+02   0.171E+03 -.163E+03 -.797E+02   0.382E+01 -.354E+01 -.193E+01   -.975E-04 0.189E-03 0.548E-03
   0.103E+03 -.582E+02 0.383E+02   -.107E+03 0.572E+02 -.362E+02   0.202E+01 0.372E+01 -.215E+01   0.917E-04 -.107E-03 -.410E-04
   -.557E+01 0.184E+02 -.223E+02   0.685E+01 -.180E+02 0.227E+02   -.844E+00 -.111E+01 0.815E+00   -.151E-03 0.139E-04 0.163E-03
   -.364E+02 -.434E+02 -.468E+02   0.364E+02 0.433E+02 0.495E+02   0.725E+00 0.136E+01 -.102E+01   -.747E-05 0.116E-03 -.582E-04
   -.242E+02 -.167E+02 -.835E+02   0.228E+02 0.186E+02 0.860E+02   0.169E+01 -.977E+00 -.106E+01   0.317E-04 0.980E-04 -.272E-04
   -.511E+02 -.188E+02 0.683E+02   0.492E+02 0.182E+02 -.689E+02   0.308E+01 0.571E-01 -.135E+01   -.646E-04 0.741E-04 -.152E-03
   0.968E+02 -.951E+02 -.291E+02   -.965E+02 0.968E+02 0.304E+02   -.172E+01 -.804E+00 -.706E+00   0.734E-04 -.201E-03 -.118E-05
   -.628E+02 -.607E+02 0.481E+02   0.650E+02 0.614E+02 -.487E+02   -.732E+00 0.174E+01 0.142E-01   0.366E-04 -.316E-03 -.236E-03
   0.629E+02 0.953E+02 0.850E+02   -.610E+02 -.978E+02 -.849E+02   -.232E+01 0.102E+01 -.155E+01   0.237E-04 0.144E-03 0.421E-04
   0.671E+02 0.263E+02 0.102E+02   -.650E+02 -.262E+02 -.967E+01   -.320E+01 -.179E+01 -.106E+01   -.996E-05 0.139E-03 0.785E-04
   -.764E+02 0.446E+02 0.266E+02   0.773E+02 -.476E+02 -.259E+02   -.243E+00 0.255E+01 -.165E+01   -.771E-04 0.262E-03 0.589E-04
   0.106E+03 -.591E+02 -.309E+02   -.109E+03 0.599E+02 0.279E+02   0.704E-01 0.290E+00 0.244E+01   0.136E-03 0.309E-03 0.194E-03
   0.683E+00 -.127E+03 -.153E+03   -.133E+01 0.127E+03 0.155E+03   0.150E+01 0.220E+01 -.611E+00   0.310E-03 -.124E-03 -.665E-04
   -.726E+02 0.123E+03 -.276E+02   0.738E+02 -.125E+03 0.276E+02   -.153E+00 0.122E+00 0.364E+00   -.917E-04 -.545E-03 -.229E-03
   0.796E+02 0.629E+01 0.821E+02   -.813E+02 -.651E+01 -.812E+02   0.165E+01 0.165E+00 -.195E+01   0.889E-04 0.935E-04 -.216E-04
   -.482E+02 0.563E+02 -.605E+02   0.494E+02 -.570E+02 0.591E+02   -.952E+00 -.229E+01 0.271E+01   -.105E-03 0.902E-04 -.814E-05
   0.178E+02 0.838E+02 0.156E+03   -.159E+02 -.829E+02 -.159E+03   -.375E+00 -.301E+01 -.155E+01   -.678E-04 -.136E-03 0.829E-04
   -.232E+02 0.628E+02 -.151E+02   0.225E+02 -.616E+02 0.154E+02   0.107E+01 -.933E+00 0.291E+00   0.538E-04 -.175E-03 0.638E-04
   -.104E+01 0.290E+02 -.485E+02   0.211E+00 -.297E+02 0.507E+02   0.156E+01 0.662E+00 -.194E+01   0.262E-04 0.612E-04 0.283E-05
   0.447E+02 0.161E+02 0.356E+02   -.463E+02 -.169E+02 -.362E+02   -.698E+00 0.821E+00 -.122E+01   -.414E-04 0.997E-04 0.340E-04
   0.252E+02 -.236E+02 0.522E+01   -.260E+02 0.229E+02 -.328E+01   -.463E+00 0.120E+01 -.344E+01   0.158E-04 -.108E-03 -.212E-04
   -.129E+02 0.142E+02 0.107E+00   0.138E+02 -.139E+02 -.517E-01   -.110E+01 -.642E+00 -.110E+00   -.698E-05 -.184E-03 0.343E-04
   0.508E+02 0.658E+01 -.239E+02   -.519E+02 -.576E+01 0.253E+02   -.126E+00 -.168E+01 -.570E+00   -.343E-04 0.386E-04 -.266E-04
   0.296E+02 -.232E+02 0.231E+02   -.318E+02 0.228E+02 -.245E+02   0.170E+01 0.785E+00 0.135E+01   0.648E-04 0.127E-03 -.917E-04
   0.411E+02 -.297E+01 -.794E+01   -.419E+02 0.375E+01 0.740E+01   -.214E+01 -.804E+00 0.240E+01   -.369E-04 0.713E-06 0.313E-04
   -.238E+01 0.393E+02 0.143E+02   0.314E+01 -.396E+02 -.148E+02   -.111E+01 -.101E+01 0.726E+00   0.132E-04 -.886E-04 -.575E-05
   -.459E+02 0.118E+02 -.274E+02   0.490E+02 -.131E+02 0.277E+02   -.254E+01 0.120E+01 -.494E+00   -.957E-04 -.147E-03 -.202E-03
   -.765E+02 -.256E+02 -.120E+01   0.799E+02 0.284E+02 0.751E+00   -.749E+00 -.352E+01 -.549E+00   0.257E-03 0.498E-04 0.208E-03
   -.247E+02 0.403E+02 -.496E+01   0.252E+02 -.417E+02 0.529E+01   0.734E+00 -.249E+00 -.173E+01   0.122E-03 0.473E-04 0.173E-04
   0.291E+02 -.196E+02 0.102E+02   -.292E+02 0.199E+02 -.860E+01   -.557E+00 0.410E+00 -.321E+01   -.101E-03 0.791E-04 0.364E-04
   0.479E+02 -.594E+02 0.618E+02   -.483E+02 0.605E+02 -.646E+02   -.970E+00 0.123E+01 0.347E+01   -.218E-04 -.824E-05 0.548E-04
   -.214E+02 -.242E+01 0.768E+01   0.211E+02 0.507E+01 -.946E+01   0.102E+01 -.462E+01 0.312E+01   -.106E-04 0.219E-04 0.976E-04
   0.404E+02 0.334E+00 0.215E+01   -.415E+02 0.175E+01 -.380E+01   -.155E+01 -.303E+01 0.270E+01   0.418E-04 0.655E-05 -.178E-04
   -.215E+02 -.706E+02 -.651E+02   0.219E+02 0.714E+02 0.671E+02   0.440E-02 0.273E+01 0.372E+00   -.355E-04 0.231E-04 0.651E-05
   -.133E+02 0.234E+02 -.238E+02   0.150E+02 -.261E+02 0.234E+02   -.260E+01 0.339E+01 0.121E+01   -.936E-04 0.343E-03 0.518E-03
   -.106E+02 0.117E+02 0.400E+01   0.115E+02 -.124E+02 -.381E+01   -.501E+00 0.917E+00 -.857E+00   0.703E-04 0.721E-04 0.866E-06
   -.434E+01 0.768E+02 -.991E+02   0.346E+01 -.796E+02 0.103E+03   0.103E+01 0.795E+00 -.141E+01   -.113E-03 -.441E-03 -.428E-03
   0.589E+02 -.371E+02 -.511E+02   -.618E+02 0.371E+02 0.525E+02   0.296E+01 0.148E+01 -.481E+00   0.496E-04 -.921E-04 -.373E-04
   0.638E+01 0.141E+00 0.554E+02   -.484E+01 -.293E+01 -.571E+02   -.309E+01 0.478E+01 -.592E+00   -.269E-04 0.721E-04 -.266E-04
   -.224E+02 0.502E+02 0.126E+02   0.218E+02 -.528E+02 -.119E+02   0.241E+01 0.233E+01 -.138E+01   0.316E-04 0.259E-04 -.549E-06
   -.230E+02 0.796E+02 0.273E+02   0.224E+02 -.816E+02 -.268E+02   0.134E+01 -.804E+00 -.132E+01   -.191E-05 -.715E-04 -.354E-04
   0.413E+02 0.641E+02 0.138E+02   -.435E+02 -.674E+02 -.142E+02   0.167E+01 0.162E+01 0.334E+00   0.208E-04 -.375E-04 0.441E-04
   0.416E+02 0.423E+01 0.924E+01   -.432E+02 -.345E+01 -.866E+01   0.471E+00 -.195E+01 -.126E+01   -.467E-04 0.300E-03 0.427E-04
   -.119E+02 -.356E+02 -.146E+02   0.106E+02 0.385E+02 0.156E+02   0.228E+01 -.285E+01 -.150E+01   0.104E-03 -.227E-04 0.219E-04
   -.887E+01 -.183E+02 -.293E+01   0.892E+01 0.190E+02 0.328E+01   -.298E+00 -.159E+00 -.107E+00   -.237E-04 0.277E-04 -.120E-03
   0.536E+02 -.301E+02 -.274E+02   -.550E+02 0.327E+02 0.279E+02   0.453E+00 -.368E+01 0.381E-01   0.470E-04 0.194E-04 -.191E-04
   -.289E+02 -.803E+02 -.215E+02   0.294E+02 0.839E+02 0.213E+02   0.190E-01 -.288E+01 0.181E+01   -.159E-03 -.381E-03 -.969E-04
   0.684E+01 0.109E+02 0.288E+02   -.744E+01 -.116E+02 -.299E+02   0.920E+00 0.551E+00 0.546E+00   0.718E-04 -.521E-04 -.401E-04
   -.857E+02 -.594E+02 -.472E+01   0.885E+02 0.621E+02 0.523E+01   -.176E+01 -.836E+00 -.390E+00   -.215E-04 0.363E-04 0.109E-03
   0.163E+02 0.578E+02 0.179E+02   -.166E+02 -.608E+02 -.200E+02   0.103E+01 0.202E+01 0.298E+01   0.932E-05 0.635E-04 0.137E-04
   -.151E+02 -.633E+01 0.137E+02   -.462E-13 -.924E-13 0.316E-12   0.151E+02 0.633E+01 -.137E+02   0.158E-03 -.244E-03 -.360E-03

 POSITION                                       TOTAL-FORCE (eV/Angst)
      2.40186      0.03930      0.02181        -2.947390      3.050767      2.508582
      6.57836      0.15528      0.03238        -0.993100     -0.564329      1.244266
      2.16849      4.31187      0.14328         2.243039      0.544967      0.519161
      6.60779      4.34425      0.19249        -2.598039      0.801283      0.464547
      2.21380      0.11508      4.46699         1.103257      1.014869     -2.614209
      6.39655      0.00691      4.46541         0.406894      2.993763     -0.700410
      2.13496      4.28717      4.49943         2.473033      1.064002     -0.403831
      6.63733      4.31679      4.28843        -1.362383      1.252965      1.336879
      2.27421      2.37524      2.36435         0.225716     -1.662733     -0.570699
      6.39979      2.41451      2.18552         1.799017     -1.546803      1.658364
      2.20960      6.48528      2.30096        -0.026954      1.319259      0.090609
      6.48472      6.65410      2.26052         0.263081     -1.592997     -0.179908
      2.24778      2.39965      6.41170         1.015097     -1.805681      2.369065
      6.43906      2.24483      6.65589         0.398874      0.263815     -2.220359
      2.13586      6.65372      6.66116         2.799421     -2.459935     -3.211792
      6.61335      6.37477      6.50571        -2.113046      2.671739      0.020645
      0.09175      0.16875      2.17473         0.438581     -0.638930      1.202163
      4.25767      0.14409      2.15774         0.737419      1.218873      1.727253
      0.17900      4.34379      2.17323         0.322662      0.969364      1.487089
      4.29527      4.54476      2.38641         1.188219     -0.581571     -2.008091
      0.19081      0.17694      6.47663        -1.393480      0.930422      0.600167
      4.31306      0.08033      6.47557         1.434016      2.353929     -0.596160
      0.17567      4.47158      6.59328        -0.444125     -1.442034     -1.455593
      4.44364      4.54434      6.57153        -1.138605     -1.601934     -0.521285
      0.16092      2.24418      0.21748         0.681649     -0.478786     -0.945161
      4.52516      2.28216      0.14820        -2.649713      1.087664     -0.486643
      0.08375      6.40199      0.01947         0.854276      2.404735      1.170209
      4.31344      6.66378      0.15081         1.035756     -1.558158      0.359434
      0.10959      2.17643      4.46635         0.032947     -0.054127     -1.009487
      4.38549      2.38047      4.36688         0.216326     -2.970728      1.299876
      0.05362      6.61075      4.53518         1.508291     -2.062754     -4.019968
      4.27412      6.52618      4.38666         0.415832      0.238545      0.573584
      0.10103      2.25179      2.26165         0.733011     -0.073141      0.229175
      4.51017      2.36029      2.40245        -2.362546     -0.028696     -1.753196
      0.22761      6.47041      2.34175        -1.264759      0.513357     -1.501178
      4.35427      6.60843      2.27679        -0.173878     -0.347604     -0.055004
      0.24525      2.35429      6.48495        -1.270503     -0.863377      0.798118
      4.43510      2.25561      6.58581        -0.447557      0.442787     -0.038886
      0.29329      6.51980      6.41767        -3.019668     -0.031617      1.858232
      4.45640      6.60586      6.51765        -0.355497     -1.323347      0.212867
      0.10231      0.14878      0.08971         0.566030     -0.024939     -0.204807
      4.23742      0.25831      0.12501         2.672559     -0.775899     -1.000126
      0.10431      4.46738      0.17362         1.237989     -1.695470     -1.395986
      4.45555      4.40850      0.28761        -0.669625      0.678284     -1.567151
      0.19471      0.01720      4.33285        -1.341592      2.283197      0.687452
      4.31196      0.26891      4.26074         0.763105     -1.973891      1.351462
      0.27917      4.43039      4.26070        -2.629384     -0.941863      1.056838
      4.30662      4.25215      4.28769         0.366818      3.585116      2.371550
      2.35383      2.24258      0.07743        -0.973812      0.687211      0.884645
      6.53175      2.22934      0.21551         0.419923      0.207732     -0.662208
      2.20520      6.64327      0.04109         0.154508     -2.026193      2.246718
      6.48732      6.37627      0.01288         0.035457      1.513132      0.912317
      2.35225      2.12433      4.52382        -1.551978      1.993092     -2.271276
      6.40895      2.32742      4.52028         1.818044     -0.343059     -0.675169
      2.18210      6.66576      4.46644         0.666053     -2.851796     -0.821534
      6.45588      6.59612      4.34280        -0.563374     -1.645494     -0.037497
      2.25963      0.28263      2.25979        -1.125247     -1.163099     -0.684471
      6.36319      0.19082      2.26497         0.975540      0.115007     -0.438442
      2.28367      4.38555      2.26531        -0.244723      0.555618      0.239876
      6.63085      4.54619      2.22004        -0.977840     -1.069146      0.495918
      2.19878      0.08707      6.41478         0.568635      0.712995      1.661799
      6.45256      0.15947      6.54374         0.323618     -0.173504     -0.613209
      2.16618      4.30306      6.57230         0.995572      1.881020      0.114288
      6.45541      4.43653      6.39621         0.748552     -0.975878      0.910591
    total drift:                                0.000512     -0.000022      0.000041

  FREE ENERGIE OF THE ION-ELECTRON SYSTEM (eV)
  free  energy   TOTEN  =      -526.27029951 eV

  energy  without entropy=     -526.27029950  energy(sigma->0) =     -526.27029951

 total charge

[...]

 magnetization (x)

# of ion       s       p       d       tot
    1       -0.011  -0.003  -1.080  -1.094
    2        0.020   0.027   2.786   2.833
    3       -0.027  -0.026  -2.892  -2.945
    4       -0.022  -0.031  -2.761  -2.814
    5       -0.028  -0.037  -2.777  -2.842
    6        0.022   0.021   2.803   2.847
    7        0.023   0.027   2.747   2.797
    8        0.022   0.022   2.862   2.907
    9       -0.031  -0.035  -2.851  -2.917
   10        0.028   0.030   2.810   2.868
   11        0.023   0.026   2.816   2.865
   12        0.025   0.024   2.848   2.897
   13       -0.022  -0.017  -2.732  -2.771
   14       -0.018  -0.022  -2.767  -2.807
   15       -0.030  -0.020  -2.805  -2.856
   16       -0.025  -0.025  -2.835  -2.885
   17       -0.027  -0.032  -2.843  -2.902
   18        0.032   0.042   2.808   2.881
   19        0.031   0.043   2.802   2.876
   20       -0.021  -0.028  -2.714  -2.763
   21       -0.023  -0.019  -2.886  -2.928
   22       -0.023  -0.023  -2.837  -2.883
   23       -0.027  -0.024  -2.859  -2.910
   24       -0.024  -0.018  -2.926  -2.968
   25       -0.028  -0.033  -2.892  -2.953
   26        0.020   0.032   2.800   2.851
   27        0.026   0.039   2.733   2.798
   28       -0.034  -0.039  -2.830  -2.903
   29        0.023   0.030   2.836   2.890
   30        0.013   0.014   2.694   2.721
   31       -0.026  -0.035  -2.753  -2.815
   32        0.027   0.032   2.851   2.911
   33        0.002   0.023   0.000   0.025
   34       -0.007  -0.020   0.000  -0.027
   35       -0.007  -0.038   0.000  -0.045
   36       -0.005  -0.021   0.000  -0.026
   37        0.006   0.035   0.000   0.041
   38        0.003   0.023   0.000   0.027
   39        0.012   0.047   0.000   0.059
   40        0.008   0.042   0.000   0.050
   41        0.003   0.022   0.000   0.024
   42       -0.002   0.009   0.000   0.007
   43        0.004   0.028   0.000   0.031
   44        0.011   0.085   0.000   0.096
   45        0.009   0.023   0.000   0.031
   46       -0.006  -0.047   0.000  -0.053
   47       -0.008  -0.029   0.000  -0.037
   48       -0.003  -0.022   0.000  -0.025
   49        0.006   0.070   0.000   0.075
   50       -0.002  -0.013   0.000  -0.015
   51        0.004   0.030   0.000   0.033
   52        0.006   0.033   0.000   0.039
   53        0.003  -0.004   0.000  -0.001
   54       -0.007  -0.051   0.000  -0.058
   55        0.001  -0.038   0.000  -0.037
   56       -0.005  -0.042   0.000  -0.047
   57        0.002   0.010   0.000   0.012
   58       -0.009  -0.041   0.000  -0.051
   59        0.001   0.002   0.000   0.003
   60       -0.006  -0.026   0.000  -0.032
   61        0.011   0.043   0.000   0.054
   62        0.000   0.025   0.000   0.025
   63        0.006   0.040   0.000   0.046
   64        0.006   0.027   0.000   0.033
tot         -0.075   0.164  -9.845  -9.755